3681585959954364871505,8,1,2,013,6,1,2,07,8,1,2,014,14,1,2,03,1,1,2,09,4,1,2,013,1,1,2,04,8,1,2,06,11,1,2,03,8,1,2,03,7,1,2,02,11,1,2,015,3,1,2,09,5,1,2,03,3,1,2,05,1,1,2,010,14,1,2,015,3,1,2,07,15,1,2,010,13,1,2,015,7,1,2,011,3,1,2,01,13,1,2,015,9,1,2,08,9,1,2,09,6,1,2,06,4,1,2,02,12,1,2,08,10,1,2,015,10,1,2,010,4,1,2,02,6,1,2,08,6,1,2,010,6,1,2,013,2,1,2,08,1,1,2,01,13,1,2,03,3,1,2,05,7,1,2,03,15,1,2,04,9,1,2,03,8,1,2,010,7,1,2,09,12,1,2,011,3,1,2,01,8,1,2,014,7,1,2,07,8,1,2,012,11,1,2,013,4,1,2,0